40
1 0 4
2 0 1
2 1 2
3 0 1
3 1 1
3 2 3
4 0 3
4 1 2
4 2 1
4 3 1
5 0 3
5 1 3
5 2 2
5 3 4
5 4 4
6 0 2
6 1 2
6 2 2
6 3 1
6 4 3
6 5 4
7 0 3
7 1 4
7 2 4
7 3 1
7 4 3
7 5 2
7 6 3
8 0 3
8 1 4
8 2 1
8 3 1
8 4 4
8 5 3
8 6 3
8 7 3
9 0 2
9 1 2
9 2 1
9 3 4
9 4 2
9 5 2
9 6 2
9 7 3
9 8 1
10 0 1
10 1 3
10 2 4
10 3 2
10 4 2
10 5 4
10 6 1
10 7 1
10 8 4
10 9 3
11 0 4
11 1 2
11 2 1
11 3 3
11 4 4
11 5 3
11 6 3
11 7 3
11 8 2
11 9 4
11 10 1
12 0 3
12 1 3
12 2 1
12 3 3
12 4 2
12 5 2
12 6 2
12 7 4
12 8 4
12 9 3
12 10 4
12 11 3
13 0 3
13 1 2
13 2 3
13 3 3
13 4 3
13 5 4
13 6 1
13 7 4
13 8 4
13 9 3
13 10 3
13 11 2
13 12 3
14 0 4
14 1 2
14 2 4
14 3 4
14 4 1
14 5 3
14 6 1
14 7 1
14 8 3
14 9 2
14 10 3
14 11 3
14 12 4
14 13 1
15 0 3
15 1 2
15 2 2
15 3 1
15 4 4
15 5 3
15 6 2
15 7 4
15 8 2
15 9 4
15 10 4
15 11 3
15 12 1
15 13 1
15 14 2
16 0 1
16 1 2
16 2 1
16 3 1
16 4 1
16 5 3
16 6 3
16 7 4
16 8 4
16 9 1
16 10 2
16 11 1
16 12 2
16 13 1
16 14 2
16 15 3
17 0 3
17 1 2
17 2 4
17 3 2
17 4 4
17 5 4
17 6 2
17 7 4
17 8 1
17 9 3
17 10 4
17 11 1
17 12 2
17 13 3
17 14 2
17 15 2
17 16 2
18 0 2
18 1 4
18 2 2
18 3 2
18 4 1
18 5 3
18 6 3
18 7 4
18 8 1
18 9 2
18 10 3
18 11 4
18 12 2
18 13 3
18 14 3
18 15 1
18 16 3
18 17 3
19 0 4
19 1 1
19 2 1
19 3 1
19 4 1
19 5 1
19 6 2
19 7 3
19 8 2
19 9 2
19 10 2
19 11 2
19 12 3
19 13 2
19 14 1
19 15 4
19 16 1
19 17 3
19 18 1
20 0 1
20 1 4
20 2 4
20 3 2
20 4 3
20 5 1
20 6 1
20 7 3
20 8 2
20 9 1
20 10 4
20 11 4
20 12 4
20 13 3
20 14 3
20 15 2
20 16 2
20 17 1
20 18 3
20 19 2
21 0 1
21 1 2
21 2 4
21 3 2
21 4 2
21 5 4
21 6 1
21 7 4
21 8 4
21 9 3
21 10 1
21 11 2
21 12 1
21 13 1
21 14 2
21 15 2
21 16 3
21 17 4
21 18 3
21 19 3
21 20 3
22 0 4
22 1 3
22 2 1
22 3 3
22 4 2
22 5 1
22 6 2
22 7 3
22 8 1
22 9 3
22 10 1
22 11 4
22 12 2
22 13 2
22 14 3
22 15 4
22 16 1
22 17 1
22 18 4
22 19 3
22 20 3
22 21 3
23 0 2
23 1 1
23 2 1
23 3 2
23 4 3
23 5 2
23 6 3
23 7 2
23 8 3
23 9 2
23 10 4
23 11 1
23 12 3
23 13 2
23 14 1
23 15 1
23 16 2
23 17 1
23 18 1
23 19 1
23 20 4
23 21 4
23 22 4
24 0 4
24 1 2
24 2 1
24 3 4
24 4 1
24 5 1
24 6 1
24 7 4
24 8 4
24 9 4
24 10 3
24 11 2
24 12 1
24 13 4
24 14 3
24 15 2
24 16 3
24 17 4
24 18 1
24 19 3
24 20 3
24 21 2
24 22 1
24 23 3
25 0 2
25 1 1
25 2 2
25 3 1
25 4 1
25 5 3
25 6 1
25 7 4
25 8 1
25 9 4
25 10 2
25 11 1
25 12 4
25 13 4
25 14 2
25 15 3
25 16 4
25 17 1
25 18 2
25 19 3
25 20 3
25 21 4
25 22 2
25 23 4
25 24 3
26 0 3
26 1 4
26 2 1
26 3 1
26 4 4
26 5 1
26 6 3
26 7 4
26 8 3
26 9 3
26 10 2
26 11 3
26 12 1
26 13 2
26 14 4
26 15 3
26 16 4
26 17 2
26 18 2
26 19 4
26 20 4
26 21 1
26 22 2
26 23 3
26 24 3
26 25 2
27 0 3
27 1 3
27 2 3
27 3 1
27 4 2
27 5 2
27 6 2
27 7 2
27 8 1
27 9 3
27 10 2
27 11 1
27 12 1
27 13 4
27 14 4
27 15 3
27 16 2
27 17 3
27 18 2
27 19 4
27 20 2
27 21 2
27 22 4
27 23 2
27 24 1
27 25 2
27 26 2
28 0 3
28 1 3
28 2 3
28 3 3
28 4 2
28 5 4
28 6 3
28 7 2
28 8 4
28 9 1
28 10 2
28 11 1
28 12 1
28 13 4
28 14 4
28 15 2
28 16 4
28 17 3
28 18 2
28 19 1
28 20 2
28 21 3
28 22 4
28 23 2
28 24 2
28 25 4
28 26 2
28 27 2
29 0 2
29 1 1
29 2 2
29 3 1
29 4 3
29 5 4
29 6 2
29 7 2
29 8 2
29 9 3
29 10 1
29 11 3
29 12 2
29 13 4
29 14 3
29 15 4
29 16 3
29 17 2
29 18 4
29 19 3
29 20 1
29 21 1
29 22 4
29 23 2
29 24 2
29 25 2
29 26 2
29 27 4
29 28 3
30 0 3
30 1 4
30 2 2
30 3 2
30 4 2
30 5 2
30 6 3
30 7 4
30 8 3
30 9 2
30 10 3
30 11 2
30 12 1
30 13 2
30 14 3
30 15 4
30 16 2
30 17 1
30 18 4
30 19 4
30 20 3
30 21 1
30 22 3
30 23 3
30 24 1
30 25 4
30 26 1
30 27 1
30 28 3
30 29 2
31 0 3
31 1 2
31 2 2
31 3 3
31 4 1
31 5 2
31 6 4
31 7 4
31 8 2
31 9 3
31 10 2
31 11 1
31 12 4
31 13 4
31 14 3
31 15 2
31 16 1
31 17 2
31 18 4
31 19 4
31 20 4
31 21 2
31 22 3
31 23 2
31 24 1
31 25 3
31 26 4
31 27 4
31 28 1
31 29 4
31 30 3
32 0 2
32 1 4
32 2 4
32 3 4
32 4 3
32 5 4
32 6 3
32 7 2
32 8 1
32 9 3
32 10 4
32 11 1
32 12 1
32 13 1
32 14 4
32 15 4
32 16 3
32 17 4
32 18 2
32 19 3
32 20 3
32 21 3
32 22 1
32 23 3
32 24 4
32 25 2
32 26 4
32 27 4
32 28 1
32 29 3
32 30 3
32 31 3
33 0 2
33 1 3
33 2 3
33 3 1
33 4 2
33 5 3
33 6 3
33 7 1
33 8 1
33 9 4
33 10 2
33 11 3
33 12 2
33 13 3
33 14 2
33 15 1
33 16 1
33 17 4
33 18 2
33 19 3
33 20 4
33 21 1
33 22 2
33 23 2
33 24 3
33 25 3
33 26 3
33 27 4
33 28 1
33 29 4
33 30 1
33 31 4
33 32 4
34 0 2
34 1 2
34 2 2
34 3 2
34 4 3
34 5 3
34 6 2
34 7 3
34 8 4
34 9 1
34 10 4
34 11 3
34 12 3
34 13 2
34 14 2
34 15 4
34 16 1
34 17 3
34 18 1
34 19 1
34 20 3
34 21 1
34 22 2
34 23 4
34 24 2
34 25 1
34 26 4
34 27 3
34 28 4
34 29 1
34 30 3
34 31 3
34 32 2
34 33 2
35 0 4
35 1 4
35 2 2
35 3 1
35 4 3
35 5 3
35 6 1
35 7 4
35 8 3
35 9 4
35 10 1
35 11 1
35 12 2
35 13 1
35 14 4
35 15 1
35 16 4
35 17 3
35 18 3
35 19 2
35 20 3
35 21 4
35 22 3
35 23 2
35 24 3
35 25 2
35 26 1
35 27 3
35 28 2
35 29 1
35 30 2
35 31 3
35 32 3
35 33 2
35 34 1
36 0 4
36 1 4
36 2 2
36 3 2
36 4 1
36 5 2
36 6 1
36 7 1
36 8 4
36 9 4
36 10 2
36 11 2
36 12 3
36 13 3
36 14 3
36 15 2
36 16 2
36 17 4
36 18 4
36 19 2
36 20 4
36 21 4
36 22 3
36 23 2
36 24 4
36 25 3
36 26 2
36 27 2
36 28 4
36 29 3
36 30 2
36 31 2
36 32 4
36 33 2
36 34 1
36 35 2
37 0 1
37 1 3
37 2 3
37 3 1
37 4 1
37 5 1
37 6 3
37 7 1
37 8 1
37 9 1
37 10 3
37 11 4
37 12 2
37 13 2
37 14 3
37 15 2
37 16 4
37 17 3
37 18 1
37 19 2
37 20 1
37 21 1
37 22 4
37 23 2
37 24 3
37 25 1
37 26 3
37 27 1
37 28 2
37 29 4
37 30 1
37 31 2
37 32 4
37 33 1
37 34 1
37 35 4
37 36 1
38 0 2
38 1 3
38 2 4
38 3 3
38 4 3
38 5 4
38 6 2
38 7 3
38 8 2
38 9 1
38 10 2
38 11 3
38 12 1
38 13 4
38 14 1
38 15 4
38 16 4
38 17 2
38 18 4
38 19 4
38 20 2
38 21 1
38 22 3
38 23 3
38 24 3
38 25 4
38 26 1
38 27 3
38 28 1
38 29 2
38 30 3
38 31 2
38 32 2
38 33 4
38 34 1
38 35 1
38 36 4
38 37 2
39 0 2
39 1 2
39 2 4
39 3 1
39 4 3
39 5 3
39 6 3
39 7 2
39 8 4
39 9 2
39 10 4
39 11 4
39 12 1
39 13 2
39 14 4
39 15 4
39 16 4
39 17 1
39 18 2
39 19 1
39 20 2
39 21 1
39 22 3
39 23 1
39 24 1
39 25 2
39 26 1
39 27 3
39 28 3
39 29 3
39 30 3
39 31 4
39 32 2
39 33 2
39 34 3
39 35 1
39 36 3
39 37 1
39 38 3
